133953
117
84
81
126
82
83
75
76
78
80
79
77
18
21
17
22
4
23
24
6
106
15
108
20
19
72
8
9
11
114
105
7
1
16
2
51
57
54
45
103
44
35
36
37
41
14
12
31
27
30
43
34
39
38
26
25
33
122
28
29
32
42
40
121
5
56
124
52
50
13
115
10
120
3
90
116
60
62
61
91
58
64
100
113
66
55
47
49
53
118
48
46
94
112
111
107
0
127
93
95
123
97
98
101
102
63
119
96
109
87
86
85
88
110
71
70
69
68
73
74
67
59
125
89
92
99
65
104
